*<meta creator='lp_solve v5.5'>
*<meta rows=159>
*<meta columns=98>
*<meta equalities=0>
*<meta integers=0>
*<meta origsense='MIN'>
*
NAME                  
ROWS
 N  R0      
 G  R1      
 G  R2      
 G  R3      
 G  R4      
 G  R5      
 G  R6      
 G  R7      
 G  R8      
 G  R9      
 G  R10     
 G  R11     
 G  R12     
 G  R13     
 G  R14     
 G  R15     
 G  R16     
 G  R17     
 G  R18     
 G  R19     
 G  R20     
 G  R21     
 G  R22     
 G  R23     
 G  R24     
 G  R25     
 G  R26     
 G  R27     
 G  R28     
 G  R29     
 G  R30     
 G  R31     
 G  R32     
 G  R33     
 G  R34     
 G  R35     
 G  R36     
 G  R37     
 G  R38     
 G  R39     
 G  R40     
 G  R41     
 G  R42     
 G  R43     
 G  R44     
 G  R45     
 G  R46     
 G  R47     
 G  R48     
 G  R49     
 G  R50     
 G  R51     
 G  R52     
 G  R53     
 G  R54     
 G  R55     
 G  R56     
 G  R57     
 G  R58     
 G  R59     
 G  R60     
 G  R61     
 G  R62     
 G  R63     
 G  R64     
 G  R65     
 G  R66     
 G  R67     
 G  R68     
 G  R69     
 G  R70     
 G  R71     
 G  R72     
 G  R73     
 G  R74     
 G  R75     
 G  R76     
 G  R77     
 G  R78     
 G  R79     
 G  R80     
 G  R81     
 G  R82     
 G  R83     
 G  R84     
 G  R85     
 G  R86     
 G  R87     
 G  R88     
 G  R89     
 G  R90     
 G  R91     
 G  R92     
 G  R93     
 G  R94     
 G  R95     
 G  R96     
 G  R97     
 G  R98     
 G  R99     
 G  R100    
 G  R101    
 G  R102    
 G  R103    
 G  R104    
 G  R105    
 G  R106    
 G  R107    
 G  R108    
 G  R109    
 G  R110    
 G  R111    
 G  R112    
 G  R113    
 G  R114    
 G  R115    
 G  R116    
 G  R117    
 G  R118    
 G  R119    
 G  R120    
 G  R121    
 G  R122    
 G  R123    
 G  R124    
 G  R125    
 G  R126    
 G  R127    
 G  R128    
 G  R129    
 G  R130    
 G  R131    
 G  R132    
 G  R133    
 G  R134    
 G  R135    
 G  R136    
 G  R137    
 G  R138    
 G  R139    
 G  R140    
 G  R141    
 G  R142    
 G  R143    
 G  R144    
 G  R145    
 G  R146    
 G  R147    
 G  R148    
 G  R149    
 G  R150    
 G  R151    
 G  R152    
 G  R153    
 G  R154    
 G  R155    
 G  R156    
 G  R157    
 G  R158    
 G  R159    
COLUMNS
    C1        R0        1.0000000000   R1        -1.000000000
    C1        R3        -1.000000000   R4        -1.000000000
    C1        R5        -1.000000000   R6        -1.000000000
    C1        R7        -1.000000000   R8        -1.000000000
    C1        R9        -1.000000000   R10       -1.000000000
    C1        R13       -1.000000000   R14       -1.000000000
    C1        R16       -1.000000000   R18       -1.000000000
    C1        R20       -1.000000000   R22       -1.000000000
    C1        R27       -1.000000000   R32       -1.000000000
    C1        R59       -1.000000000   R140      1.0000000000
    C2        R0        1.0000000000   R1        1.0000000000
    C2        R2        -1.000000000
    C3        R0        1.0000000000   R2        1.0000000000
    C3        R118      -1.000000000
    C4        R0        1.0000000000   R3        1.0000000000
    C4        R110      -1.000000000
    C5        R0        1.0000000000   R4        1.0000000000
    C5        R109      -1.000000000
    C6        R0        1.0000000000   R5        1.0000000000
    C6        R108      -1.000000000
    C7        R0        1.0000000000   R6        1.0000000000
    C7        R100      -1.000000000
    C8        R0        1.0000000000   R7        1.0000000000
    C8        R96       -1.000000000
    C9        R0        1.0000000000   R8        1.0000000000
    C9        R72       -1.000000000
    C10       R0        1.0000000000   R9        1.0000000000
    C10       R68       -1.000000000
    C11       R0        1.0000000000   R10       1.0000000000
    C11       R11       -1.000000000   R12       -1.000000000
    C12       R0        1.0000000000   R11       1.0000000000
    C12       R69       -1.000000000
    C13       R0        1.0000000000   R12       1.0000000000
    C13       R60       -1.000000000
    C14       R0        1.0000000000   R13       1.0000000000
    C14       R58       -1.000000000
    C15       R0        1.0000000000   R14       1.0000000000
    C15       R15       -1.000000000
    C16       R0        1.0000000000   R15       1.0000000000
    C16       R53       -1.000000000
    C17       R0        1.0000000000   R16       1.0000000000
    C17       R17       -1.000000000
    C18       R0        1.0000000000   R17       1.0000000000
    C18       R52       -1.000000000
    C19       R0        1.0000000000   R18       1.0000000000
    C19       R19       -1.000000000
    C20       R0        1.0000000000   R19       1.0000000000
    C20       R47       -1.000000000
    C21       R0        1.0000000000   R20       1.0000000000
    C21       R21       -1.000000000
    C22       R0        1.0000000000   R21       1.0000000000
    C22       R46       -1.000000000
    C23       R0        1.0000000000   R22       1.0000000000
    C23       R23       -1.000000000   R24       -1.000000000
    C23       R25       -1.000000000   R26       -1.000000000
    C24       R0        1.0000000000   R23       1.0000000000
    C24       R74       -1.000000000
    C25       R0        1.0000000000   R24       1.0000000000
    C25       R71       -1.000000000
    C26       R0        1.0000000000   R25       1.0000000000
    C26       R65       -1.000000000
    C27       R0        1.0000000000   R26       1.0000000000
    C27       R41       -1.000000000
    C28       R0        1.0000000000   R27       1.0000000000
    C28       R28       -1.000000000   R29       -1.000000000
    C28       R30       -1.000000000   R31       -1.000000000
    C29       R0        1.0000000000   R28       1.0000000000
    C29       R73       -1.000000000
    C30       R0        1.0000000000   R29       1.0000000000
    C30       R70       -1.000000000
    C31       R0        1.0000000000   R30       1.0000000000
    C31       R64       -1.000000000
    C32       R0        1.0000000000   R31       1.0000000000
    C32       R40       -1.000000000
    C33       R0        1.0000000000   R32       1.0000000000
    C33       R33       -1.000000000
    C34       R0        1.0000000000   R33       1.0000000000
    C34       R34       -1.000000000   R35       -1.000000000
    C35       R0        1.0000000000
    C36       R0        1.0000000000   R34       1.0000000000
    C36       R37       -1.000000000
    C37       R0        1.0000000000   R35       1.0000000000
    C37       R36       -1.000000000
    C38       R0        1.0000000000   R36       1.0000000000
    C38       R39       -1.000000000
    C39       R0        1.0000000000   R37       1.0000000000
    C39       R38       -1.000000000
    C40       R0        1.0000000000   R38       1.0000000000
    C40       R39       1.0000000000   R75       -1.000000000
    C41       R0        1.0000000000   R40       1.0000000000
    C41       R42       -1.000000000   R119      -1.000000000
    C41       R141      1.0000000000
    C42       R0        1.0000000000   R41       1.0000000000
    C42       R44       -1.000000000   R120      -1.000000000
    C42       R142      1.0000000000
    C43       R0        1.0000000000   R42       1.0000000000
    C43       R43       -1.000000000
    C44       R0        1.0000000000   R43       1.0000000000
    C44       R44       1.0000000000   R45       -1.000000000
    C45       R0        1.0000000000   R45       1.0000000000
    C45       R77       -1.000000000
    C46       R0        1.0000000000   R46       1.0000000000
    C46       R48       -1.000000000   R121      -1.000000000
    C46       R143      1.0000000000
    C47       R0        1.0000000000   R47       1.0000000000
    C47       R50       -1.000000000   R122      -1.000000000
    C47       R144      1.0000000000
    C48       R0        1.0000000000   R48       1.0000000000
    C48       R49       -1.000000000
    C49       R0        1.0000000000   R49       1.0000000000
    C49       R50       1.0000000000   R51       -1.000000000
    C50       R0        1.0000000000   R51       1.0000000000
    C50       R86       -1.000000000
    C51       R0        1.0000000000   R52       1.0000000000
    C51       R54       -1.000000000   R123      -1.000000000
    C51       R145      1.0000000000
    C52       R0        1.0000000000   R53       1.0000000000
    C52       R56       -1.000000000   R124      -1.000000000
    C52       R146      1.0000000000
    C53       R0        1.0000000000   R54       1.0000000000
    C53       R55       -1.000000000
    C54       R0        1.0000000000   R55       1.0000000000
    C54       R56       1.0000000000   R57       -1.000000000
    C55       R0        1.0000000000   R57       1.0000000000
    C55       R88       -1.000000000
    C56       R0        1.0000000000   R58       1.0000000000
    C56       R61       -1.000000000   R125      -1.000000000
    C56       R147      1.0000000000
    C57       R0        1.0000000000   R59       1.0000000000
    C57       R138      -1.000000000   R140      -1.000000000
    C58       R0        1.0000000000   R60       1.0000000000
    C58       R63       -1.000000000   R126      -1.000000000
    C58       R148      1.0000000000
    C59       R0        1.0000000000   R61       1.0000000000
    C59       R62       -1.000000000
    C60       R0        1.0000000000   R62       1.0000000000
    C60       R63       1.0000000000   R89       -1.000000000
    C61       R0        1.0000000000   R64       1.0000000000
    C61       R67       -1.000000000   R127      -1.000000000
    C61       R149      1.0000000000
    C62       R0        1.0000000000   R65       1.0000000000
    C62       R66       -1.000000000   R128      -1.000000000
    C62       R150      1.0000000000
    C63       R0        1.0000000000   R66       1.0000000000
    C63       R67       1.0000000000   R91       -1.000000000
    C64       R0        1.0000000000   R68       1.0000000000
    C64       R80       -1.000000000   R129      -1.000000000
    C64       R151      1.0000000000
    C65       R0        1.0000000000   R69       1.0000000000
    C65       R79       -1.000000000   R130      -1.000000000
    C65       R152      1.0000000000
    C66       R0        1.0000000000   R70       1.0000000000
    C66       R82       -1.000000000   R131      -1.000000000
    C66       R153      1.0000000000
    C67       R0        1.0000000000   R71       1.0000000000
    C67       R84       -1.000000000   R132      -1.000000000
    C67       R154      1.0000000000
    C68       R0        1.0000000000   R72       1.0000000000
    C68       R102      -1.000000000   R133      -1.000000000
    C68       R155      1.0000000000
    C69       R0        1.0000000000   R73       1.0000000000
    C69       R101      -1.000000000   R134      -1.000000000
    C69       R156      1.0000000000
    C70       R0        1.0000000000   R74       1.0000000000
    C70       R104      -1.000000000   R135      -1.000000000
    C70       R157      1.0000000000
    C71       R0        1.0000000000   R75       1.0000000000
    C71       R76       -1.000000000
    C72       R0        1.0000000000   R76       1.0000000000
    C72       R77       1.0000000000   R78       -1.000000000
    C73       R0        1.0000000000   R78       1.0000000000
    C73       R85       -1.000000000
    C74       R0        1.0000000000   R79       1.0000000000
    C74       R80       1.0000000000   R81       -1.000000000
    C75       R0        1.0000000000   R81       1.0000000000
    C75       R82       1.0000000000   R83       -1.000000000
    C76       R0        1.0000000000   R83       1.0000000000
    C76       R84       1.0000000000   R93       -1.000000000
    C77       R0        1.0000000000   R85       1.0000000000
    C77       R86       1.0000000000   R87       -1.000000000
    C78       R0        1.0000000000   R87       1.0000000000
    C78       R88       1.0000000000   R95       -1.000000000
    C78       R98       -1.000000000
    C79       R0        1.0000000000   R89       1.0000000000
    C79       R90       -1.000000000
    C80       R0        1.0000000000   R90       1.0000000000
    C80       R91       1.0000000000   R92       -1.000000000
    C81       R0        1.0000000000   R92       1.0000000000
    C81       R93       1.0000000000   R94       -1.000000000
    C82       R0        1.0000000000   R94       1.0000000000
    C82       R97       -1.000000000
    C83       R0        1.0000000000   R95       1.0000000000
    C83       R96       1.0000000000
    C84       R0        1.0000000000   R97       1.0000000000
    C84       R98       1.0000000000   R99       -1.000000000
    C84       R106      -1.000000000
    C85       R0        1.0000000000   R99       1.0000000000
    C85       R100      1.0000000000
    C86       R0        1.0000000000   R101      1.0000000000
    C86       R102      1.0000000000   R103      -1.000000000
    C87       R0        1.0000000000   R103      1.0000000000
    C87       R104      1.0000000000   R105      -1.000000000
    C88       R0        1.0000000000   R105      1.0000000000
    C88       R106      1.0000000000   R107      -1.000000000
    C88       R111      -1.000000000
    C89       R0        1.0000000000   R107      1.0000000000
    C89       R108      1.0000000000
    C90       R0        1.0000000000   R109      1.0000000000
    C90       R116      -1.000000000   R136      -1.000000000
    C90       R158      1.0000000000
    C91       R0        1.0000000000   R110      1.0000000000
    C91       R113      -1.000000000   R137      -1.000000000
    C91       R159      1.0000000000
    C92       R0        1.0000000000   R111      1.0000000000
    C92       R112      -1.000000000
    C93       R0        1.0000000000   R112      1.0000000000
    C93       R113      1.0000000000   R114      -1.000000000
    C94       R0        1.0000000000   R114      1.0000000000
    C94       R115      -1.000000000
    C95       R0        1.0000000000   R115      1.0000000000
    C95       R116      1.0000000000   R117      -1.000000000
    C96       R0        1.0000000000   R117      1.0000000000
    C96       R118      1.0000000000   R119      1.0000000000
    C96       R120      1.0000000000   R121      1.0000000000
    C96       R122      1.0000000000   R123      1.0000000000
    C96       R124      1.0000000000   R125      1.0000000000
    C96       R126      1.0000000000   R127      1.0000000000
    C96       R128      1.0000000000   R129      1.0000000000
    C96       R130      1.0000000000   R131      1.0000000000
    C96       R132      1.0000000000   R133      1.0000000000
    C96       R134      1.0000000000   R135      1.0000000000
    C96       R136      1.0000000000   R137      1.0000000000
    C96       R141      -1.000000000   R142      -1.000000000
    C96       R143      -1.000000000   R144      -1.000000000
    C96       R145      -1.000000000   R146      -1.000000000
    C96       R147      -1.000000000   R148      -1.000000000
    C96       R149      -1.000000000   R150      -1.000000000
    C96       R151      -1.000000000   R152      -1.000000000
    C96       R153      -1.000000000   R154      -1.000000000
    C96       R155      -1.000000000   R156      -1.000000000
    C96       R157      -1.000000000   R158      -1.000000000
    C96       R159      -1.000000000
    C97       R0        1.0000000000   R138      1.0000000000
    C97       R139      -1.000000000
    C98       R0        1.0000000000   R139      1.0000000000
RHS
    RHS       R36       1.0000000000   R37       1.0000000000
    RHS       R48       1.0000000000   R50       1.0000000000
    RHS       R51       1.0000000000   R57       1.0000000000
    RHS       R61       1.0000000000   R63       1.0000000000
    RHS       R66       1.0000000000   R67       1.0000000000
    RHS       R75       3.0000000000   R77       1.0000000000
    RHS       R78       1.0000000000   R79       1.0000000000
    RHS       R80       1.0000000000   R82       1.0000000000
    RHS       R84       1.0000000000   R86       1.0000000000
    RHS       R89       3.0000000000   R92       1.0000000000
    RHS       R93       1.0000000000   R101      1.0000000000
    RHS       R102      1.0000000000   R104      1.0000000000
    RHS       R114      1.0000000000   R121      1.0000000000
    RHS       R122      1.0000000000   R123      1.0000000000
    RHS       R124      1.0000000000   R140      -1.000000000
    RHS       R141      -6.000000000   R142      -5.000000000
    RHS       R143      -5.000000000   R144      -4.000000000
    RHS       R145      -3.000000000   R146      -2.000000000
    RHS       R147      -8.000000000   R148      -7.000000000
    RHS       R149      -6.000000000   R150      -5.000000000
    RHS       R151      -8.000000000   R152      -7.000000000
    RHS       R153      -6.000000000   R154      -5.000000000
    RHS       R155      -8.000000000   R156      -6.000000000
    RHS       R157      -5.000000000   R158      -8.000000000
    RHS       R159      -8.000000000
ENDATA
